Route 1: 5 3 7 10 8 11 9 4 6 2 1 75

Route 2: 13 17 18 19 15 16 14 12

Route 3: 20 24 25 27 29 28 26 22 23 21

Route 4: 33 31 32 35 37 30 36 34

Route 5: 43 41 40 42 39 38

Route 6: 55 54 53 44 45 46 48 51 50 52 49 47

Route 7: 57 56 58 60 59 61 66

Route 8: 67 65 63 62 71 70 73 64 68 69

Route 9: 76 78 81 74 72 79 77 80

Route 10: 90 87 86 83 82 84 85 88 89 91

Route 11: 98 96 95 94 93 92 97 100 99

Vehicles: 11

Distance: 1167.79

